language ESSENCE' 1.0
letting shiftRequirements = [[8, 2, 3, 7], [5, 2, 4, 9], [5, 2, 5, 8], [5, 1, 7, 7], [8, 2, 3, 7], [9, 3, 2, 6], [9, 3, 2, 6]]
letting numberOfWeeks = 20
letting s_min = 2
letting s_max = 4
